p wcnf 121 182 183 
1 6 -15 0 
1 -18 -6 0 
1 -95 -35 0 
1 56 -47 0 
1 44 41 0 
1 -5 73 0 
1 84 -66 0 
1 10 19 0 
1 -54 17 0 
1 9 -111 0 
1 106 12 0 
1 15 55 0 
1 -45 -10 0 
1 100 36 0 
1 74 71 0 
1 -1 111 0 
1 -80 -29 0 
1 31 -54 0 
1 -53 -15 0 
1 -5 102 0 
1 92 -54 0 
1 -15 -48 0 
1 -96 60 0 
1 -110 109 0 
1 -84 -113 0 
1 80 -22 0 
1 101 -116 0 
1 5 -99 0 
1 -32 62 0 
1 40 -24 0 
1 61 -116 0 
1 96 -70 0 
1 -49 110 0 
1 5 82 0 
1 51 31 0 
1 32 -112 0 
1 81 -73 0 
1 -14 11 0 
1 74 -100 0 
1 -25 12 0 
1 21 5 0 
1 61 16 0 
1 -56 94 0 
1 -81 -100 0 
1 62 -65 0 
1 61 -20 0 
1 -8 112 0 
1 43 47 0 
1 52 36 0 
1 -79 -103 0 
1 89 99 0 
1 28 83 0 
1 -89 -15 0 
1 13 -84 0 
1 -8 97 0 
1 83 68 0 
1 -117 106 0 
1 87 -82 0 
1 -121 -107 0 
1 -91 86 0 
1 -15 87 0 
1 86 -85 0 
1 89 77 0 
1 22 -11 0 
1 -27 46 0 
1 -75 89 0 
1 73 -69 0 
1 34 -36 0 
1 -43 -52 0 
1 33 88 0 
1 21 43 0 
1 -92 -121 0 
1 108 -63 0 
1 48 75 0 
1 2 84 0 
1 -88 -24 0 
1 82 71 0 
1 -42 33 0 
1 -17 52 0 
1 -63 -110 0 
1 77 -113 0 
1 -2 46 0 
1 -88 -50 0 
1 -102 -118 0 
1 -22 -49 0 
1 -92 -71 0 
1 -40 -24 0 
1 4 75 0 
1 60 14 0 
1 97 32 0 
1 -24 -18 0 
1 -6 19 0 
1 -106 107 0 
1 -31 -76 0 
1 -54 -77 0 
1 50 111 0 
1 94 -8 0 
1 -111 -52 0 
1 48 93 0 
1 22 29 0 
1 -115 15 0 
1 42 -4 0 
1 54 -39 0 
1 4 -1 0 
1 -30 -117 0 
1 70 -53 0 
1 -57 -113 0 
1 -117 -103 0 
1 -21 -61 0 
1 80 -22 0 
1 -111 21 0 
1 112 69 0 
1 -116 -112 0 
1 -44 92 0 
1 -82 -61 0 
1 -53 -82 0 
1 106 -17 0 
1 49 77 0 
1 -27 -31 0 
1 88 121 0 
1 -33 -113 0 
1 24 110 0 
1 116 -111 0 
1 117 -87 0 
1 74 -81 0 
1 -92 46 0 
1 -15 4 0 
1 -71 -26 0 
1 104 -49 0 
1 83 68 0 
1 -79 -40 0 
1 13 68 0 
1 -21 29 0 
1 -108 32 0 
1 -66 44 0 
1 109 -34 0 
1 13 -69 0 
1 67 40 0 
1 -105 -103 0 
1 -11 46 0 
1 -29 40 0 
1 -95 -110 0 
1 23 80 0 
1 86 31 0 
1 106 -39 0 
1 -2 37 0 
1 57 69 0 
1 -120 -116 0 
1 -93 26 0 
1 -50 80 0 
1 94 -66 0 
1 89 -106 0 
1 117 75 0 
1 72 -37 0 
1 -4 96 0 
1 -42 105 0 
1 -48 -54 0 
1 33 -105 0 
1 -91 61 0 
1 22 -29 0 
1 95 40 0 
1 25 101 0 
1 -96 -28 0 
1 -101 -42 0 
1 -9 17 0 
1 -108 24 0 
1 21 101 0 
1 -77 -81 0 
1 45 -58 0 
1 -113 6 0 
1 -54 -60 0 
1 13 67 0 
1 84 -37 0 
1 -106 -112 0 
1 101 -105 0 
1 -45 -88 0 
1 87 -61 0 
1 79 38 0 
1 -48 -69 0 
1 -49 70 0 
1 -51 -24 0 
1 49 36 0 
